(set-info :smt-lib-version 2.6)
(set-info :category "crafted")
(set-logic QF_FF)
(define-sort FF0 () (_ FiniteField 52435875175126190479447740508185965837690552500527637822603658699938581184513))
(declare-fun return_n0_alt () FF0)
(declare-fun h_n5_alt () FF0)
(declare-fun mul_n14_alt () FF0)
(declare-fun g_n7_alt () FF0)
(declare-fun mul_n13_alt () FF0)
(declare-fun f_n1_alt () FF0)
(declare-fun mul_n12_alt () FF0)
(declare-fun mul_n11_alt () FF0)
(declare-fun d_n3_alt () FF0)
(declare-fun mul_n10_alt () FF0)
(declare-fun c_n4_alt () FF0)
(declare-fun mul_n9_alt () FF0)
(declare-fun b_n6_alt () FF0)
(declare-fun a_n8_alt () FF0)
(declare-fun return_n0 () FF0)
(declare-fun h_n5 () FF0)
(declare-fun mul_n14 () FF0)
(declare-fun g_n7 () FF0)
(declare-fun mul_n13 () FF0)
(declare-fun f_n1 () FF0)
(declare-fun mul_n12 () FF0)
(declare-fun mul_n11 () FF0)
(declare-fun d_n3 () FF0)
(declare-fun mul_n10 () FF0)
(declare-fun c_n4 () FF0)
(declare-fun mul_n9 () FF0)
(declare-fun b_n6 () FF0)
(declare-fun a_n8 () FF0)
(declare-fun e_n2_alt () FF0)
(declare-fun e_n2 () FF0)
(assert 
  (let ((let0 (as ff1 FF0)))
  (let ((let1 (as ff52435875175126190479447740508185965837690552500527637822603658699938581184512 FF0)))
  (let ((let2 return_n0_alt))
  (let ((let3 (ff.mul let2 let1)))
  (let ((let4 (ff.add let3 let0)))
  (let ((let5 h_n5_alt))
  (let ((let6 (ff.mul let5 let1)))
  (let ((let7 (ff.add let6 let0)))
  (let ((let8 mul_n14_alt))
  (let ((let9 (ff.mul let8 let7)))
  (let ((let10 (= let9 let4)))
  (let ((let11 g_n7_alt))
  (let ((let12 (ff.mul let11 let1)))
  (let ((let13 (ff.add let12 let0)))
  (let ((let14 mul_n13_alt))
  (let ((let15 (ff.mul let14 let13)))
  (let ((let16 (= let15 let8)))
  (let ((let17 f_n1_alt))
  (let ((let18 (ff.mul let17 let1)))
  (let ((let19 (ff.add let18 let0)))
  (let ((let20 mul_n12_alt))
  (let ((let21 (ff.mul let20 let19)))
  (let ((let22 (= let21 let14)))
  (let ((let23 mul_n11_alt))
  (let ((let24 d_n3_alt))
  (let ((let25 (ff.mul let24 let1)))
  (let ((let26 (ff.add let25 let0)))
  (let ((let27 mul_n10_alt))
  (let ((let28 (ff.mul let27 let26)))
  (let ((let29 (= let28 let23)))
  (let ((let30 c_n4_alt))
  (let ((let31 (ff.mul let30 let1)))
  (let ((let32 (ff.add let31 let0)))
  (let ((let33 mul_n9_alt))
  (let ((let34 (ff.mul let33 let32)))
  (let ((let35 (= let34 let27)))
  (let ((let36 b_n6_alt))
  (let ((let37 (ff.mul let36 let1)))
  (let ((let38 (ff.add let37 let0)))
  (let ((let39 a_n8_alt))
  (let ((let40 (ff.mul let39 let1)))
  (let ((let41 (ff.add let40 let0)))
  (let ((let42 (ff.mul let41 let38)))
  (let ((let43 (= let42 let33)))
  (let ((let44 (and let43 let35 let29 let22 let16 let10)))
  (let ((let45 return_n0))
  (let ((let46 (ff.mul let45 let1)))
  (let ((let47 (ff.add let46 let0)))
  (let ((let48 h_n5))
  (let ((let49 (ff.mul let48 let1)))
  (let ((let50 (ff.add let49 let0)))
  (let ((let51 mul_n14))
  (let ((let52 (ff.mul let51 let50)))
  (let ((let53 (= let52 let47)))
  (let ((let54 g_n7))
  (let ((let55 (ff.mul let54 let1)))
  (let ((let56 (ff.add let55 let0)))
  (let ((let57 mul_n13))
  (let ((let58 (ff.mul let57 let56)))
  (let ((let59 (= let58 let51)))
  (let ((let60 f_n1))
  (let ((let61 (ff.mul let60 let1)))
  (let ((let62 (ff.add let61 let0)))
  (let ((let63 mul_n12))
  (let ((let64 (ff.mul let63 let62)))
  (let ((let65 (= let64 let57)))
  (let ((let66 mul_n11))
  (let ((let67 d_n3))
  (let ((let68 (ff.mul let67 let1)))
  (let ((let69 (ff.add let68 let0)))
  (let ((let70 mul_n10))
  (let ((let71 (ff.mul let70 let69)))
  (let ((let72 (= let71 let66)))
  (let ((let73 c_n4))
  (let ((let74 (ff.mul let73 let1)))
  (let ((let75 (ff.add let74 let0)))
  (let ((let76 mul_n9))
  (let ((let77 (ff.mul let76 let75)))
  (let ((let78 (= let77 let70)))
  (let ((let79 b_n6))
  (let ((let80 (ff.mul let79 let1)))
  (let ((let81 (ff.add let80 let0)))
  (let ((let82 a_n8))
  (let ((let83 (ff.mul let82 let1)))
  (let ((let84 (ff.add let83 let0)))
  (let ((let85 (ff.mul let84 let81)))
  (let ((let86 (= let85 let76)))
  (let ((let87 (and let86 let78 let72 let65 let59 let53)))
  (let ((let88 (= let45 let2)))
  (let ((let89 (not let88)))
  (let ((let90 e_n2_alt))
  (let ((let91 e_n2))
  (let ((let92 (= let91 let90)))
  (let ((let93 (= let79 let36)))
  (let ((let94 (= let67 let24)))
  (let ((let95 (= let60 let17)))
  (let ((let96 (= let54 let11)))
  (let ((let97 (= let82 let39)))
  (let ((let98 (= let73 let30)))
  (let ((let99 (= let48 let5)))
  (let ((let100 (and let99 let98 let97 let96 let95 let94 let93 let92)))
  (let ((let101 (and let100 let89 let87 let44)))
  let101
))))))))))))))))))))))))))))))))))))))))))))))))))))))))))))))))))))))))))))))))))))))))))))))))))))))
)
(check-sat)
